Minimize
 obj: 0 X_0_1
Subject To
 out_0:
  + 1 X_0_1 + 1 X_0_2 + 1 X_0_3 + 1 X_0_4 + 1 X_0_5 + 1 X_0_6 + 1 X_0_7 + 1 X_0_8
  + 1 X_0_9 + 1 X_0_10 + 1 X_0_11 + 1 X_0_12 + 1 X_0_13 + 1 X_0_14
  = 1
 in_0:
  + 1 X_1_0 + 1 X_2_0 + 1 X_3_0 + 1 X_4_0 + 1 X_5_0 + 1 X_6_0 + 1 X_7_0 + 1 X_8_0
  + 1 X_9_0 + 1 X_10_0 + 1 X_11_0 + 1 X_12_0 + 1 X_13_0 + 1 X_14_0
  = 1
 out_1:
  + 1 X_1_0 + 1 X_1_2 + 1 X_1_3 + 1 X_1_4 + 1 X_1_5 + 1 X_1_6 + 1 X_1_7 + 1 X_1_8
  + 1 X_1_9 + 1 X_1_10 + 1 X_1_11 + 1 X_1_12 + 1 X_1_13 + 1 X_1_14
  = 1
 in_1:
  + 1 X_0_1 + 1 X_2_1 + 1 X_3_1 + 1 X_4_1 + 1 X_5_1 + 1 X_6_1 + 1 X_7_1 + 1 X_8_1
  + 1 X_9_1 + 1 X_10_1 + 1 X_11_1 + 1 X_12_1 + 1 X_13_1 + 1 X_14_1
  = 1
 out_2:
  + 1 X_2_0 + 1 X_2_1 + 1 X_2_3 + 1 X_2_4 + 1 X_2_5 + 1 X_2_6 + 1 X_2_7 + 1 X_2_8
  + 1 X_2_9 + 1 X_2_10 + 1 X_2_11 + 1 X_2_12 + 1 X_2_13 + 1 X_2_14
  = 1
 in_2:
  + 1 X_0_2 + 1 X_1_2 + 1 X_3_2 + 1 X_4_2 + 1 X_5_2 + 1 X_6_2 + 1 X_7_2 + 1 X_8_2
  + 1 X_9_2 + 1 X_10_2 + 1 X_11_2 + 1 X_12_2 + 1 X_13_2 + 1 X_14_2
  = 1
 out_3:
  + 1 X_3_0 + 1 X_3_1 + 1 X_3_2 + 1 X_3_4 + 1 X_3_5 + 1 X_3_6 + 1 X_3_7 + 1 X_3_8
  + 1 X_3_9 + 1 X_3_10 + 1 X_3_11 + 1 X_3_12 + 1 X_3_13 + 1 X_3_14
  = 1
 in_3:
  + 1 X_0_3 + 1 X_1_3 + 1 X_2_3 + 1 X_4_3 + 1 X_5_3 + 1 X_6_3 + 1 X_7_3 + 1 X_8_3
  + 1 X_9_3 + 1 X_10_3 + 1 X_11_3 + 1 X_12_3 + 1 X_13_3 + 1 X_14_3
  = 1
 out_4:
  + 1 X_4_0 + 1 X_4_1 + 1 X_4_2 + 1 X_4_3 + 1 X_4_5 + 1 X_4_6 + 1 X_4_7 + 1 X_4_8
  + 1 X_4_9 + 1 X_4_10 + 1 X_4_11 + 1 X_4_12 + 1 X_4_13 + 1 X_4_14
  = 1
 in_4:
  + 1 X_0_4 + 1 X_1_4 + 1 X_2_4 + 1 X_3_4 + 1 X_5_4 + 1 X_6_4 + 1 X_7_4 + 1 X_8_4
  + 1 X_9_4 + 1 X_10_4 + 1 X_11_4 + 1 X_12_4 + 1 X_13_4 + 1 X_14_4
  = 1
 out_5:
  + 1 X_5_0 + 1 X_5_1 + 1 X_5_2 + 1 X_5_3 + 1 X_5_4 + 1 X_5_6 + 1 X_5_7 + 1 X_5_8
  + 1 X_5_9 + 1 X_5_10 + 1 X_5_11 + 1 X_5_12 + 1 X_5_13 + 1 X_5_14
  = 1
 in_5:
  + 1 X_0_5 + 1 X_1_5 + 1 X_2_5 + 1 X_3_5 + 1 X_4_5 + 1 X_6_5 + 1 X_7_5 + 1 X_8_5
  + 1 X_9_5 + 1 X_10_5 + 1 X_11_5 + 1 X_12_5 + 1 X_13_5 + 1 X_14_5
  = 1
 out_6:
  + 1 X_6_0 + 1 X_6_1 + 1 X_6_2 + 1 X_6_3 + 1 X_6_4 + 1 X_6_5 + 1 X_6_7 + 1 X_6_8
  + 1 X_6_9 + 1 X_6_10 + 1 X_6_11 + 1 X_6_12 + 1 X_6_13 + 1 X_6_14
  = 1
 in_6:
  + 1 X_0_6 + 1 X_1_6 + 1 X_2_6 + 1 X_3_6 + 1 X_4_6 + 1 X_5_6 + 1 X_7_6 + 1 X_8_6
  + 1 X_9_6 + 1 X_10_6 + 1 X_11_6 + 1 X_12_6 + 1 X_13_6 + 1 X_14_6
  = 1
 out_7:
  + 1 X_7_0 + 1 X_7_1 + 1 X_7_2 + 1 X_7_3 + 1 X_7_4 + 1 X_7_5 + 1 X_7_6 + 1 X_7_8
  + 1 X_7_9 + 1 X_7_10 + 1 X_7_11 + 1 X_7_12 + 1 X_7_13 + 1 X_7_14
  = 1
 in_7:
  + 1 X_0_7 + 1 X_1_7 + 1 X_2_7 + 1 X_3_7 + 1 X_4_7 + 1 X_5_7 + 1 X_6_7 + 1 X_8_7
  + 1 X_9_7 + 1 X_10_7 + 1 X_11_7 + 1 X_12_7 + 1 X_13_7 + 1 X_14_7
  = 1
 out_8:
  + 1 X_8_0 + 1 X_8_1 + 1 X_8_2 + 1 X_8_3 + 1 X_8_4 + 1 X_8_5 + 1 X_8_6 + 1 X_8_7
  + 1 X_8_9 + 1 X_8_10 + 1 X_8_11 + 1 X_8_12 + 1 X_8_13 + 1 X_8_14
  = 1
 in_8:
  + 1 X_0_8 + 1 X_1_8 + 1 X_2_8 + 1 X_3_8 + 1 X_4_8 + 1 X_5_8 + 1 X_6_8 + 1 X_7_8
  + 1 X_9_8 + 1 X_10_8 + 1 X_11_8 + 1 X_12_8 + 1 X_13_8 + 1 X_14_8
  = 1
 out_9:
  + 1 X_9_0 + 1 X_9_1 + 1 X_9_2 + 1 X_9_3 + 1 X_9_4 + 1 X_9_5 + 1 X_9_6 + 1 X_9_7
  + 1 X_9_8 + 1 X_9_10 + 1 X_9_11 + 1 X_9_12 + 1 X_9_13 + 1 X_9_14
  = 1
 in_9:
  + 1 X_0_9 + 1 X_1_9 + 1 X_2_9 + 1 X_3_9 + 1 X_4_9 + 1 X_5_9 + 1 X_6_9 + 1 X_7_9
  + 1 X_8_9 + 1 X_10_9 + 1 X_11_9 + 1 X_12_9 + 1 X_13_9 + 1 X_14_9
  = 1
 out_10:
  + 1 X_10_0 + 1 X_10_1 + 1 X_10_2 + 1 X_10_3 + 1 X_10_4 + 1 X_10_5 + 1 X_10_6 + 1 X_10_7
  + 1 X_10_8 + 1 X_10_9 + 1 X_10_11 + 1 X_10_12 + 1 X_10_13 + 1 X_10_14
  = 1
 in_10:
  + 1 X_0_10 + 1 X_1_10 + 1 X_2_10 + 1 X_3_10 + 1 X_4_10 + 1 X_5_10 + 1 X_6_10 + 1 X_7_10
  + 1 X_8_10 + 1 X_9_10 + 1 X_11_10 + 1 X_12_10 + 1 X_13_10 + 1 X_14_10
  = 1
 out_11:
  + 1 X_11_0 + 1 X_11_1 + 1 X_11_2 + 1 X_11_3 + 1 X_11_4 + 1 X_11_5 + 1 X_11_6 + 1 X_11_7
  + 1 X_11_8 + 1 X_11_9 + 1 X_11_10 + 1 X_11_12 + 1 X_11_13 + 1 X_11_14
  = 1
 in_11:
  + 1 X_0_11 + 1 X_1_11 + 1 X_2_11 + 1 X_3_11 + 1 X_4_11 + 1 X_5_11 + 1 X_6_11 + 1 X_7_11
  + 1 X_8_11 + 1 X_9_11 + 1 X_10_11 + 1 X_12_11 + 1 X_13_11 + 1 X_14_11
  = 1
 out_12:
  + 1 X_12_0 + 1 X_12_1 + 1 X_12_2 + 1 X_12_3 + 1 X_12_4 + 1 X_12_5 + 1 X_12_6 + 1 X_12_7
  + 1 X_12_8 + 1 X_12_9 + 1 X_12_10 + 1 X_12_11 + 1 X_12_13 + 1 X_12_14
  = 1
 in_12:
  + 1 X_0_12 + 1 X_1_12 + 1 X_2_12 + 1 X_3_12 + 1 X_4_12 + 1 X_5_12 + 1 X_6_12 + 1 X_7_12
  + 1 X_8_12 + 1 X_9_12 + 1 X_10_12 + 1 X_11_12 + 1 X_13_12 + 1 X_14_12
  = 1
 out_13:
  + 1 X_13_0 + 1 X_13_1 + 1 X_13_2 + 1 X_13_3 + 1 X_13_4 + 1 X_13_5 + 1 X_13_6 + 1 X_13_7
  + 1 X_13_8 + 1 X_13_9 + 1 X_13_10 + 1 X_13_11 + 1 X_13_12 + 1 X_13_14
  = 1
 in_13:
  + 1 X_0_13 + 1 X_1_13 + 1 X_2_13 + 1 X_3_13 + 1 X_4_13 + 1 X_5_13 + 1 X_6_13 + 1 X_7_13
  + 1 X_8_13 + 1 X_9_13 + 1 X_10_13 + 1 X_11_13 + 1 X_12_13 + 1 X_14_13
  = 1
 out_14:
  + 1 X_14_0 + 1 X_14_1 + 1 X_14_2 + 1 X_14_3 + 1 X_14_4 + 1 X_14_5 + 1 X_14_6 + 1 X_14_7
  + 1 X_14_8 + 1 X_14_9 + 1 X_14_10 + 1 X_14_11 + 1 X_14_12 + 1 X_14_13
  = 1
 in_14:
  + 1 X_0_14 + 1 X_1_14 + 1 X_2_14 + 1 X_3_14 + 1 X_4_14 + 1 X_5_14 + 1 X_6_14 + 1 X_7_14
  + 1 X_8_14 + 1 X_9_14 + 1 X_10_14 + 1 X_11_14 + 1 X_12_14 + 1 X_13_14
  = 1
 mtz_1_2:
  + 1 U1 - 1 U2 + 14 X_1_2
  <= 13
 mtz_1_3:
  + 1 U1 - 1 U3 + 14 X_1_3
  <= 13
 mtz_1_4:
  + 1 U1 - 1 U4 + 14 X_1_4
  <= 13
 mtz_1_5:
  + 1 U1 - 1 U5 + 14 X_1_5
  <= 13
 mtz_1_6:
  + 1 U1 - 1 U6 + 14 X_1_6
  <= 13
 mtz_1_7:
  + 1 U1 - 1 U7 + 14 X_1_7
  <= 13
 mtz_1_8:
  + 1 U1 - 1 U8 + 14 X_1_8
  <= 13
 mtz_1_9:
  + 1 U1 - 1 U9 + 14 X_1_9
  <= 13
 mtz_1_10:
  + 1 U1 - 1 U10 + 14 X_1_10
  <= 13
 mtz_1_11:
  + 1 U1 - 1 U11 + 14 X_1_11
  <= 13
 mtz_1_12:
  + 1 U1 - 1 U12 + 14 X_1_12
  <= 13
 mtz_1_13:
  + 1 U1 - 1 U13 + 14 X_1_13
  <= 13
 mtz_1_14:
  + 1 U1 - 1 U14 + 14 X_1_14
  <= 13
 mtz_2_1:
  + 1 U2 - 1 U1 + 14 X_2_1
  <= 13
 mtz_2_3:
  + 1 U2 - 1 U3 + 14 X_2_3
  <= 13
 mtz_2_4:
  + 1 U2 - 1 U4 + 14 X_2_4
  <= 13
 mtz_2_5:
  + 1 U2 - 1 U5 + 14 X_2_5
  <= 13
 mtz_2_6:
  + 1 U2 - 1 U6 + 14 X_2_6
  <= 13
 mtz_2_7:
  + 1 U2 - 1 U7 + 14 X_2_7
  <= 13
 mtz_2_8:
  + 1 U2 - 1 U8 + 14 X_2_8
  <= 13
 mtz_2_9:
  + 1 U2 - 1 U9 + 14 X_2_9
  <= 13
 mtz_2_10:
  + 1 U2 - 1 U10 + 14 X_2_10
  <= 13
 mtz_2_11:
  + 1 U2 - 1 U11 + 14 X_2_11
  <= 13
 mtz_2_12:
  + 1 U2 - 1 U12 + 14 X_2_12
  <= 13
 mtz_2_13:
  + 1 U2 - 1 U13 + 14 X_2_13
  <= 13
 mtz_2_14:
  + 1 U2 - 1 U14 + 14 X_2_14
  <= 13
 mtz_3_1:
  + 1 U3 - 1 U1 + 14 X_3_1
  <= 13
 mtz_3_2:
  + 1 U3 - 1 U2 + 14 X_3_2
  <= 13
 mtz_3_4:
  + 1 U3 - 1 U4 + 14 X_3_4
  <= 13
 mtz_3_5:
  + 1 U3 - 1 U5 + 14 X_3_5
  <= 13
 mtz_3_6:
  + 1 U3 - 1 U6 + 14 X_3_6
  <= 13
 mtz_3_7:
  + 1 U3 - 1 U7 + 14 X_3_7
  <= 13
 mtz_3_8:
  + 1 U3 - 1 U8 + 14 X_3_8
  <= 13
 mtz_3_9:
  + 1 U3 - 1 U9 + 14 X_3_9
  <= 13
 mtz_3_10:
  + 1 U3 - 1 U10 + 14 X_3_10
  <= 13
 mtz_3_11:
  + 1 U3 - 1 U11 + 14 X_3_11
  <= 13
 mtz_3_12:
  + 1 U3 - 1 U12 + 14 X_3_12
  <= 13
 mtz_3_13:
  + 1 U3 - 1 U13 + 14 X_3_13
  <= 13
 mtz_3_14:
  + 1 U3 - 1 U14 + 14 X_3_14
  <= 13
 mtz_4_1:
  + 1 U4 - 1 U1 + 14 X_4_1
  <= 13
 mtz_4_2:
  + 1 U4 - 1 U2 + 14 X_4_2
  <= 13
 mtz_4_3:
  + 1 U4 - 1 U3 + 14 X_4_3
  <= 13
 mtz_4_5:
  + 1 U4 - 1 U5 + 14 X_4_5
  <= 13
 mtz_4_6:
  + 1 U4 - 1 U6 + 14 X_4_6
  <= 13
 mtz_4_7:
  + 1 U4 - 1 U7 + 14 X_4_7
  <= 13
 mtz_4_8:
  + 1 U4 - 1 U8 + 14 X_4_8
  <= 13
 mtz_4_9:
  + 1 U4 - 1 U9 + 14 X_4_9
  <= 13
 mtz_4_10:
  + 1 U4 - 1 U10 + 14 X_4_10
  <= 13
 mtz_4_11:
  + 1 U4 - 1 U11 + 14 X_4_11
  <= 13
 mtz_4_12:
  + 1 U4 - 1 U12 + 14 X_4_12
  <= 13
 mtz_4_13:
  + 1 U4 - 1 U13 + 14 X_4_13
  <= 13
 mtz_4_14:
  + 1 U4 - 1 U14 + 14 X_4_14
  <= 13
 mtz_5_1:
  + 1 U5 - 1 U1 + 14 X_5_1
  <= 13
 mtz_5_2:
  + 1 U5 - 1 U2 + 14 X_5_2
  <= 13
 mtz_5_3:
  + 1 U5 - 1 U3 + 14 X_5_3
  <= 13
 mtz_5_4:
  + 1 U5 - 1 U4 + 14 X_5_4
  <= 13
 mtz_5_6:
  + 1 U5 - 1 U6 + 14 X_5_6
  <= 13
 mtz_5_7:
  + 1 U5 - 1 U7 + 14 X_5_7
  <= 13
 mtz_5_8:
  + 1 U5 - 1 U8 + 14 X_5_8
  <= 13
 mtz_5_9:
  + 1 U5 - 1 U9 + 14 X_5_9
  <= 13
 mtz_5_10:
  + 1 U5 - 1 U10 + 14 X_5_10
  <= 13
 mtz_5_11:
  + 1 U5 - 1 U11 + 14 X_5_11
  <= 13
 mtz_5_12:
  + 1 U5 - 1 U12 + 14 X_5_12
  <= 13
 mtz_5_13:
  + 1 U5 - 1 U13 + 14 X_5_13
  <= 13
 mtz_5_14:
  + 1 U5 - 1 U14 + 14 X_5_14
  <= 13
 mtz_6_1:
  + 1 U6 - 1 U1 + 14 X_6_1
  <= 13
 mtz_6_2:
  + 1 U6 - 1 U2 + 14 X_6_2
  <= 13
 mtz_6_3:
  + 1 U6 - 1 U3 + 14 X_6_3
  <= 13
 mtz_6_4:
  + 1 U6 - 1 U4 + 14 X_6_4
  <= 13
 mtz_6_5:
  + 1 U6 - 1 U5 + 14 X_6_5
  <= 13
 mtz_6_7:
  + 1 U6 - 1 U7 + 14 X_6_7
  <= 13
 mtz_6_8:
  + 1 U6 - 1 U8 + 14 X_6_8
  <= 13
 mtz_6_9:
  + 1 U6 - 1 U9 + 14 X_6_9
  <= 13
 mtz_6_10:
  + 1 U6 - 1 U10 + 14 X_6_10
  <= 13
 mtz_6_11:
  + 1 U6 - 1 U11 + 14 X_6_11
  <= 13
 mtz_6_12:
  + 1 U6 - 1 U12 + 14 X_6_12
  <= 13
 mtz_6_13:
  + 1 U6 - 1 U13 + 14 X_6_13
  <= 13
 mtz_6_14:
  + 1 U6 - 1 U14 + 14 X_6_14
  <= 13
 mtz_7_1:
  + 1 U7 - 1 U1 + 14 X_7_1
  <= 13
 mtz_7_2:
  + 1 U7 - 1 U2 + 14 X_7_2
  <= 13
 mtz_7_3:
  + 1 U7 - 1 U3 + 14 X_7_3
  <= 13
 mtz_7_4:
  + 1 U7 - 1 U4 + 14 X_7_4
  <= 13
 mtz_7_5:
  + 1 U7 - 1 U5 + 14 X_7_5
  <= 13
 mtz_7_6:
  + 1 U7 - 1 U6 + 14 X_7_6
  <= 13
 mtz_7_8:
  + 1 U7 - 1 U8 + 14 X_7_8
  <= 13
 mtz_7_9:
  + 1 U7 - 1 U9 + 14 X_7_9
  <= 13
 mtz_7_10:
  + 1 U7 - 1 U10 + 14 X_7_10
  <= 13
 mtz_7_11:
  + 1 U7 - 1 U11 + 14 X_7_11
  <= 13
 mtz_7_12:
  + 1 U7 - 1 U12 + 14 X_7_12
  <= 13
 mtz_7_13:
  + 1 U7 - 1 U13 + 14 X_7_13
  <= 13
 mtz_7_14:
  + 1 U7 - 1 U14 + 14 X_7_14
  <= 13
 mtz_8_1:
  + 1 U8 - 1 U1 + 14 X_8_1
  <= 13
 mtz_8_2:
  + 1 U8 - 1 U2 + 14 X_8_2
  <= 13
 mtz_8_3:
  + 1 U8 - 1 U3 + 14 X_8_3
  <= 13
 mtz_8_4:
  + 1 U8 - 1 U4 + 14 X_8_4
  <= 13
 mtz_8_5:
  + 1 U8 - 1 U5 + 14 X_8_5
  <= 13
 mtz_8_6:
  + 1 U8 - 1 U6 + 14 X_8_6
  <= 13
 mtz_8_7:
  + 1 U8 - 1 U7 + 14 X_8_7
  <= 13
 mtz_8_9:
  + 1 U8 - 1 U9 + 14 X_8_9
  <= 13
 mtz_8_10:
  + 1 U8 - 1 U10 + 14 X_8_10
  <= 13
 mtz_8_11:
  + 1 U8 - 1 U11 + 14 X_8_11
  <= 13
 mtz_8_12:
  + 1 U8 - 1 U12 + 14 X_8_12
  <= 13
 mtz_8_13:
  + 1 U8 - 1 U13 + 14 X_8_13
  <= 13
 mtz_8_14:
  + 1 U8 - 1 U14 + 14 X_8_14
  <= 13
 mtz_9_1:
  + 1 U9 - 1 U1 + 14 X_9_1
  <= 13
 mtz_9_2:
  + 1 U9 - 1 U2 + 14 X_9_2
  <= 13
 mtz_9_3:
  + 1 U9 - 1 U3 + 14 X_9_3
  <= 13
 mtz_9_4:
  + 1 U9 - 1 U4 + 14 X_9_4
  <= 13
 mtz_9_5:
  + 1 U9 - 1 U5 + 14 X_9_5
  <= 13
 mtz_9_6:
  + 1 U9 - 1 U6 + 14 X_9_6
  <= 13
 mtz_9_7:
  + 1 U9 - 1 U7 + 14 X_9_7
  <= 13
 mtz_9_8:
  + 1 U9 - 1 U8 + 14 X_9_8
  <= 13
 mtz_9_10:
  + 1 U9 - 1 U10 + 14 X_9_10
  <= 13
 mtz_9_11:
  + 1 U9 - 1 U11 + 14 X_9_11
  <= 13
 mtz_9_12:
  + 1 U9 - 1 U12 + 14 X_9_12
  <= 13
 mtz_9_13:
  + 1 U9 - 1 U13 + 14 X_9_13
  <= 13
 mtz_9_14:
  + 1 U9 - 1 U14 + 14 X_9_14
  <= 13
 mtz_10_1:
  + 1 U10 - 1 U1 + 14 X_10_1
  <= 13
 mtz_10_2:
  + 1 U10 - 1 U2 + 14 X_10_2
  <= 13
 mtz_10_3:
  + 1 U10 - 1 U3 + 14 X_10_3
  <= 13
 mtz_10_4:
  + 1 U10 - 1 U4 + 14 X_10_4
  <= 13
 mtz_10_5:
  + 1 U10 - 1 U5 + 14 X_10_5
  <= 13
 mtz_10_6:
  + 1 U10 - 1 U6 + 14 X_10_6
  <= 13
 mtz_10_7:
  + 1 U10 - 1 U7 + 14 X_10_7
  <= 13
 mtz_10_8:
  + 1 U10 - 1 U8 + 14 X_10_8
  <= 13
 mtz_10_9:
  + 1 U10 - 1 U9 + 14 X_10_9
  <= 13
 mtz_10_11:
  + 1 U10 - 1 U11 + 14 X_10_11
  <= 13
 mtz_10_12:
  + 1 U10 - 1 U12 + 14 X_10_12
  <= 13
 mtz_10_13:
  + 1 U10 - 1 U13 + 14 X_10_13
  <= 13
 mtz_10_14:
  + 1 U10 - 1 U14 + 14 X_10_14
  <= 13
 mtz_11_1:
  + 1 U11 - 1 U1 + 14 X_11_1
  <= 13
 mtz_11_2:
  + 1 U11 - 1 U2 + 14 X_11_2
  <= 13
 mtz_11_3:
  + 1 U11 - 1 U3 + 14 X_11_3
  <= 13
 mtz_11_4:
  + 1 U11 - 1 U4 + 14 X_11_4
  <= 13
 mtz_11_5:
  + 1 U11 - 1 U5 + 14 X_11_5
  <= 13
 mtz_11_6:
  + 1 U11 - 1 U6 + 14 X_11_6
  <= 13
 mtz_11_7:
  + 1 U11 - 1 U7 + 14 X_11_7
  <= 13
 mtz_11_8:
  + 1 U11 - 1 U8 + 14 X_11_8
  <= 13
 mtz_11_9:
  + 1 U11 - 1 U9 + 14 X_11_9
  <= 13
 mtz_11_10:
  + 1 U11 - 1 U10 + 14 X_11_10
  <= 13
 mtz_11_12:
  + 1 U11 - 1 U12 + 14 X_11_12
  <= 13
 mtz_11_13:
  + 1 U11 - 1 U13 + 14 X_11_13
  <= 13
 mtz_11_14:
  + 1 U11 - 1 U14 + 14 X_11_14
  <= 13
 mtz_12_1:
  + 1 U12 - 1 U1 + 14 X_12_1
  <= 13
 mtz_12_2:
  + 1 U12 - 1 U2 + 14 X_12_2
  <= 13
 mtz_12_3:
  + 1 U12 - 1 U3 + 14 X_12_3
  <= 13
 mtz_12_4:
  + 1 U12 - 1 U4 + 14 X_12_4
  <= 13
 mtz_12_5:
  + 1 U12 - 1 U5 + 14 X_12_5
  <= 13
 mtz_12_6:
  + 1 U12 - 1 U6 + 14 X_12_6
  <= 13
 mtz_12_7:
  + 1 U12 - 1 U7 + 14 X_12_7
  <= 13
 mtz_12_8:
  + 1 U12 - 1 U8 + 14 X_12_8
  <= 13
 mtz_12_9:
  + 1 U12 - 1 U9 + 14 X_12_9
  <= 13
 mtz_12_10:
  + 1 U12 - 1 U10 + 14 X_12_10
  <= 13
 mtz_12_11:
  + 1 U12 - 1 U11 + 14 X_12_11
  <= 13
 mtz_12_13:
  + 1 U12 - 1 U13 + 14 X_12_13
  <= 13
 mtz_12_14:
  + 1 U12 - 1 U14 + 14 X_12_14
  <= 13
 mtz_13_1:
  + 1 U13 - 1 U1 + 14 X_13_1
  <= 13
 mtz_13_2:
  + 1 U13 - 1 U2 + 14 X_13_2
  <= 13
 mtz_13_3:
  + 1 U13 - 1 U3 + 14 X_13_3
  <= 13
 mtz_13_4:
  + 1 U13 - 1 U4 + 14 X_13_4
  <= 13
 mtz_13_5:
  + 1 U13 - 1 U5 + 14 X_13_5
  <= 13
 mtz_13_6:
  + 1 U13 - 1 U6 + 14 X_13_6
  <= 13
 mtz_13_7:
  + 1 U13 - 1 U7 + 14 X_13_7
  <= 13
 mtz_13_8:
  + 1 U13 - 1 U8 + 14 X_13_8
  <= 13
 mtz_13_9:
  + 1 U13 - 1 U9 + 14 X_13_9
  <= 13
 mtz_13_10:
  + 1 U13 - 1 U10 + 14 X_13_10
  <= 13
 mtz_13_11:
  + 1 U13 - 1 U11 + 14 X_13_11
  <= 13
 mtz_13_12:
  + 1 U13 - 1 U12 + 14 X_13_12
  <= 13
 mtz_13_14:
  + 1 U13 - 1 U14 + 14 X_13_14
  <= 13
 mtz_14_1:
  + 1 U14 - 1 U1 + 14 X_14_1
  <= 13
 mtz_14_2:
  + 1 U14 - 1 U2 + 14 X_14_2
  <= 13
 mtz_14_3:
  + 1 U14 - 1 U3 + 14 X_14_3
  <= 13
 mtz_14_4:
  + 1 U14 - 1 U4 + 14 X_14_4
  <= 13
 mtz_14_5:
  + 1 U14 - 1 U5 + 14 X_14_5
  <= 13
 mtz_14_6:
  + 1 U14 - 1 U6 + 14 X_14_6
  <= 13
 mtz_14_7:
  + 1 U14 - 1 U7 + 14 X_14_7
  <= 13
 mtz_14_8:
  + 1 U14 - 1 U8 + 14 X_14_8
  <= 13
 mtz_14_9:
  + 1 U14 - 1 U9 + 14 X_14_9
  <= 13
 mtz_14_10:
  + 1 U14 - 1 U10 + 14 X_14_10
  <= 13
 mtz_14_11:
  + 1 U14 - 1 U11 + 14 X_14_11
  <= 13
 mtz_14_12:
  + 1 U14 - 1 U12 + 14 X_14_12
  <= 13
 mtz_14_13:
  + 1 U14 - 1 U13 + 14 X_14_13
  <= 13
 obj1:
  + 133 X_0_1 + 342 X_0_2 + 279 X_0_3 + 392 X_0_4 + 355 X_0_5 + 376 X_0_6 + 348 X_0_7 + 527 X_0_8
  + 444 X_0_9 + 462 X_0_10 + 497 X_0_11 + 595 X_0_12 + 492 X_0_13 + 355 X_0_14 + 133 X_1_0 + 376 X_1_2
  + 165 X_1_3 + 427 X_1_4 + 489 X_1_5 + 375 X_1_6 + 444 X_1_7 + 660 X_1_8 + 566 X_1_9 + 596 X_1_10
  + 509 X_1_11 + 480 X_1_12 + 497 X_1_13 + 451 X_1_14 + 342 X_2_0 + 376 X_2_1 + 532 X_2_3 + 731 X_2_4
  + 461 X_2_5 + 717 X_2_6 + 644 X_2_7 + 571 X_2_8 + 660 X_2_9 + 555 X_2_10 + 839 X_2_11 + 559 X_2_12
  + 164 X_2_13 + 649 X_2_14 + 279 X_3_0 + 165 X_3_1 + 532 X_3_2 + 406 X_3_4 + 624 X_3_5 + 318 X_3_6
  + 499 X_3_7 + 799 X_3_8 + 657 X_3_9 + 727 X_3_10 + 450 X_3_11 + 470 X_3_12 + 637 X_3_13 + 507 X_3_14
  + 392 X_4_0 + 427 X_4_1 + 731 X_4_2 + 406 X_4_3 + 516 X_4_5 + 113 X_4_6 + 211 X_4_7 + 663 X_4_8
  + 400 X_4_9 + 575 X_4_10 + 123 X_4_11 + 873 X_4_12 + 884 X_4_13 + 215 X_4_14 + 355 X_5_0 + 489 X_5_1
  + 461 X_5_2 + 624 X_5_3 + 516 X_5_4 + 577 X_5_6 + 324 X_5_7 + 174 X_5_8 + 227 X_5_9 + 109 X_5_10
  + 639 X_5_11 + 920 X_5_12 + 618 X_5_13 + 324 X_5_14 + 376 X_6_0 + 375 X_6_1 + 717 X_6_2 + 318 X_6_3
  + 113 X_6_4 + 577 X_6_5 + 302 X_6_7 + 736 X_6_8 + 494 X_6_9 + 650 X_6_10 + 135 X_6_11 + 788 X_6_12
  + 860 X_6_13 + 308 X_6_14 + 348 X_7_0 + 444 X_7_1 + 644 X_7_2 + 499 X_7_3 + 211 X_7_4 + 324 X_7_5
  + 302 X_7_6 + 456 X_7_8 + 191 X_7_9 + 368 X_7_10 + 326 X_7_11 + 923 X_7_12 + 807 X_7_13 + 8 X_7_14
  + 527 X_8_0 + 660 X_8_1 + 571 X_8_2 + 799 X_8_3 + 663 X_8_4 + 174 X_8_5 + 736 X_8_6 + 456 X_8_7
  + 298 X_8_9 + 87 X_8_10 + 782 X_8_11 + 1074 X_8_12 + 710 X_8_13 + 454 X_8_14 + 444 X_9_0 + 566 X_9_1
  + 660 X_9_2 + 657 X_9_3 + 400 X_9_4 + 227 X_9_5 + 494 X_9_6 + 191 X_9_7 + 298 X_9_8 + 216 X_9_10
  + 509 X_9_11 + 1040 X_9_12 + 822 X_9_13 + 185 X_9_14 + 462 X_10_0 + 596 X_10_1 + 555 X_10_2 + 727 X_10_3
  + 575 X_10_4 + 109 X_10_5 + 650 X_10_6 + 368 X_10_7 + 87 X_10_8 + 216 X_10_9 + 694 X_10_11 + 1029 X_10_12
  + 706 X_10_13 + 366 X_10_14 + 497 X_11_0 + 509 X_11_1 + 839 X_11_2 + 450 X_11_3 + 123 X_11_4 + 639 X_11_5
  + 135 X_11_6 + 326 X_11_7 + 782 X_11_8 + 509 X_11_9 + 694 X_11_10 + 920 X_11_12 + 987 X_11_13 + 329 X_11_14
  + 595 X_12_0 + 480 X_12_1 + 559 X_12_2 + 470 X_12_3 + 873 X_12_4 + 920 X_12_5 + 788 X_12_6 + 923 X_12_7
  + 1074 X_12_8 + 1040 X_12_9 + 1029 X_12_10 + 920 X_12_11 + 532 X_12_13 + 931 X_12_14 + 492 X_13_0 + 497 X_13_1
  + 164 X_13_2 + 637 X_13_3 + 884 X_13_4 + 618 X_13_5 + 860 X_13_6 + 807 X_13_7 + 710 X_13_8 + 822 X_13_9
  + 706 X_13_10 + 987 X_13_11 + 532 X_13_12 + 812 X_13_14 + 355 X_14_0 + 451 X_14_1 + 649 X_14_2 + 507 X_14_3
  + 215 X_14_4 + 324 X_14_5 + 308 X_14_6 + 8 X_14_7 + 454 X_14_8 + 185 X_14_9 + 366 X_14_10 + 329 X_14_11
  + 931 X_14_12 + 812 X_14_13
  <= 1
 obj2:
  + 930 X_0_1 + 123 X_0_2 + 256 X_0_3 + 462 X_0_4 + 299 X_0_5 + 644 X_0_6 + 339 X_0_7 + 535 X_0_8
  + 921 X_0_9 + 402 X_0_10 + 694 X_0_11 + 282 X_0_12 + 287 X_0_13 + 888 X_0_14 + 930 X_1_0 + 960 X_1_2
  + 1158 X_1_3 + 1239 X_1_4 + 653 X_1_5 + 288 X_1_6 + 806 X_1_7 + 683 X_1_8 + 23 X_1_9 + 654 X_1_10
  + 629 X_1_11 + 706 X_1_12 + 1105 X_1_13 + 83 X_1_14 + 123 X_2_0 + 960 X_2_1 + 197 X_2_3 + 350 X_2_4
  + 375 X_2_5 + 672 X_2_6 + 261 X_2_7 + 473 X_2_8 + 955 X_2_9 + 499 X_2_10 + 638 X_2_11 + 376 X_2_12
  + 176 X_2_13 + 909 X_2_14 + 256 X_3_0 + 1158 X_3_1 + 197 X_3_2 + 261 X_3_4 + 552 X_3_5 + 869 X_3_6
  + 428 X_3_7 + 642 X_3_8 + 1152 X_3_9 + 657 X_3_10 + 806 X_3_11 + 538 X_3_12 + 136 X_3_13 + 1107 X_3_14
  + 462 X_4_0 + 1239 X_4_1 + 350 X_4_2 + 261 X_4_3 + 719 X_4_5 + 958 X_4_6 + 436 X_4_7 + 614 X_4_8
  + 1238 X_4_9 + 849 X_4_10 + 761 X_4_11 + 726 X_4_12 + 175 X_4_13 + 1176 X_4_14 + 299 X_5_0 + 653 X_5_1
  + 375 X_5_2 + 552 X_5_3 + 719 X_5_4 + 382 X_5_6 + 398 X_5_7 + 490 X_5_8 + 642 X_5_9 + 150 X_5_10
  + 609 X_5_11 + 68 X_5_12 + 550 X_5_13 + 623 X_5_14 + 644 X_6_0 + 288 X_6_1 + 672 X_6_2 + 869 X_6_3
  + 958 X_6_4 + 382 X_6_5 + 530 X_6_7 + 447 X_6_8 + 283 X_6_9 + 424 X_6_10 + 454 X_6_11 + 443 X_6_12
  + 818 X_6_13 + 244 X_6_14 + 339 X_7_0 + 806 X_7_1 + 261 X_7_2 + 428 X_7_3 + 436 X_7_4 + 398 X_7_5
  + 530 X_7_6 + 214 X_7_8 + 805 X_7_9 + 549 X_7_10 + 379 X_7_11 + 441 X_7_12 + 327 X_7_13 + 740 X_7_14
  + 535 X_8_0 + 683 X_8_1 + 473 X_8_2 + 642 X_8_3 + 614 X_8_4 + 490 X_8_5 + 447 X_8_6 + 214 X_8_7
  + 688 X_8_9 + 631 X_8_10 + 165 X_8_11 + 551 X_8_12 + 534 X_8_13 + 607 X_8_14 + 921 X_9_0 + 23 X_9_1
  + 955 X_9_2 + 1152 X_9_3 + 1238 X_9_4 + 642 X_9_5 + 283 X_9_6 + 805 X_9_7 + 688 X_9_8 + 638 X_9_10
  + 640 X_9_11 + 693 X_9_12 + 1101 X_9_13 + 98 X_9_14 + 402 X_10_0 + 654 X_10_1 + 499 X_10_2 + 657 X_10_3
  + 849 X_10_4 + 150 X_10_5 + 424 X_10_6 + 549 X_10_7 + 631 X_10_8 + 638 X_10_9 + 736 X_10_11 + 123 X_10_12
  + 676 X_10_13 + 643 X_10_14 + 694 X_11_0 + 629 X_11_1 + 638 X_11_2 + 806 X_11_3 + 761 X_11_4 + 609 X_11_5
  + 454 X_11_6 + 379 X_11_7 + 165 X_11_8 + 640 X_11_9 + 736 X_11_10 + 675 X_11_12 + 695 X_11_13 + 547 X_11_14
  + 282 X_12_0 + 706 X_12_1 + 376 X_12_2 + 538 X_12_3 + 726 X_12_4 + 68 X_12_5 + 443 X_12_6 + 441 X_12_7
  + 551 X_12_8 + 693 X_12_9 + 123 X_12_10 + 675 X_12_11 + 552 X_12_13 + 681 X_12_14 + 287 X_13_0 + 1105 X_13_1
  + 176 X_13_2 + 136 X_13_3 + 175 X_13_4 + 550 X_13_5 + 818 X_13_6 + 327 X_13_7 + 534 X_13_8 + 1101 X_13_9
  + 676 X_13_10 + 695 X_13_11 + 552 X_13_12 + 1047 X_13_14 + 888 X_14_0 + 83 X_14_1 + 909 X_14_2 + 1107 X_14_3
  + 1176 X_14_4 + 623 X_14_5 + 244 X_14_6 + 740 X_14_7 + 607 X_14_8 + 98 X_14_9 + 643 X_14_10 + 547 X_14_11
  + 681 X_14_12 + 1047 X_14_13
  <= 2
 obj3:
  + 680 X_0_1 + 376 X_0_2 + 95 X_0_3 + 248 X_0_4 + 248 X_0_5 + 718 X_0_6 + 611 X_0_7 + 465 X_0_8
  + 176 X_0_9 + 651 X_0_10 + 583 X_0_11 + 251 X_0_12 + 203 X_0_13 + 222 X_0_14 + 680 X_1_0 + 632 X_1_2
  + 746 X_1_3 + 722 X_1_4 + 454 X_1_5 + 41 X_1_6 + 272 X_1_7 + 432 X_1_8 + 505 X_1_9 + 492 X_1_10
  + 639 X_1_11 + 899 X_1_12 + 748 X_1_13 + 865 X_1_14 + 376 X_2_0 + 632 X_2_1 + 467 X_2_3 + 611 X_2_4
  + 437 X_2_5 + 655 X_2_6 + 718 X_2_7 + 672 X_2_8 + 367 X_2_9 + 339 X_2_10 + 213 X_2_11 + 410 X_2_12
  + 241 X_2_13 + 582 X_2_14 + 95 X_3_0 + 746 X_3_1 + 467 X_3_2 + 187 X_3_4 + 296 X_3_5 + 785 X_3_6
  + 646 X_3_7 + 478 X_3_8 + 243 X_3_9 + 746 X_3_10 + 676 X_3_11 + 258 X_3_12 + 271 X_3_13 + 130 X_3_14
  + 248 X_4_0 + 722 X_4_1 + 611 X_4_2 + 187 X_4_3 + 284 X_4_5 + 763 X_4_6 + 558 X_4_7 + 362 X_4_8
  + 285 X_4_9 + 840 X_4_10 + 807 X_4_11 + 443 X_4_12 + 449 X_4_13 + 206 X_4_14 + 248 X_5_0 + 454 X_5_1
  + 437 X_5_2 + 296 X_5_3 + 284 X_5_4 + 494 X_5_6 + 363 X_5_7 + 245 X_5_8 + 85 X_5_9 + 583 X_5_10
  + 592 X_5_11 + 496 X_5_12 + 394 X_5_13 + 411 X_5_14 + 718 X_6_0 + 41 X_6_1 + 655 X_6_2 + 785 X_6_3
  + 763 X_6_4 + 494 X_6_5 + 304 X_6_7 + 471 X_6_8 + 543 X_6_9 + 494 X_6_10 + 650 X_6_11 + 933 X_6_12
  + 781 X_6_13 + 905 X_6_14 + 611 X_7_0 + 272 X_7_1 + 718 X_7_2 + 646 X_7_3 + 558 X_7_4 + 363 X_7_5
  + 304 X_7_6 + 204 X_7_8 + 444 X_7_9 + 696 X_7_10 + 798 X_7_11 + 859 X_7_12 + 747 X_7_13 + 741 X_7_14
  + 465 X_8_0 + 432 X_8_1 + 672 X_8_2 + 478 X_8_3 + 362 X_8_4 + 245 X_8_5 + 471 X_8_6 + 204 X_8_7
  + 328 X_8_9 + 748 X_8_10 + 802 X_8_11 + 716 X_8_12 + 636 X_8_13 + 556 X_8_14 + 176 X_9_0 + 505 X_9_1
  + 367 X_9_2 + 243 X_9_3 + 285 X_9_4 + 85 X_9_5 + 543 X_9_6 + 444 X_9_7 + 328 X_9_8 + 556 X_9_10
  + 540 X_9_11 + 416 X_9_12 + 309 X_9_13 + 368 X_9_14 + 651 X_10_0 + 492 X_10_1 + 339 X_10_2 + 746 X_10_3
  + 840 X_10_4 + 583 X_10_5 + 494 X_10_6 + 696 X_10_7 + 748 X_10_8 + 556 X_10_9 + 194 X_10_11 + 746 X_10_12
  + 572 X_10_13 + 874 X_10_14 + 583 X_11_0 + 639 X_11_1 + 213 X_11_2 + 676 X_11_3 + 807 X_11_4 + 592 X_11_5
  + 650 X_11_6 + 798 X_11_7 + 802 X_11_8 + 540 X_11_9 + 194 X_11_10 + 615 X_11_12 + 451 X_11_13 + 794 X_11_14
  + 251 X_12_0 + 899 X_12_1 + 410 X_12_2 + 258 X_12_3 + 443 X_12_4 + 496 X_12_5 + 933 X_12_6 + 859 X_12_7
  + 716 X_12_8 + 416 X_12_9 + 746 X_12_10 + 615 X_12_11 + 175 X_12_13 + 284 X_12_14 + 203 X_13_0 + 748 X_13_1
  + 241 X_13_2 + 271 X_13_3 + 449 X_13_4 + 394 X_13_5 + 781 X_13_6 + 747 X_13_7 + 636 X_13_8 + 309 X_13_9
  + 572 X_13_10 + 451 X_13_11 + 175 X_13_12 + 363 X_13_14 + 222 X_14_0 + 865 X_14_1 + 582 X_14_2 + 130 X_14_3
  + 206 X_14_4 + 411 X_14_5 + 905 X_14_6 + 741 X_14_7 + 556 X_14_8 + 368 X_14_9 + 874 X_14_10 + 794 X_14_11
  + 284 X_14_12 + 363 X_14_13
  <= 3
Bounds
 1 <= U1 <= 14
 1 <= U2 <= 14
 1 <= U3 <= 14
 1 <= U4 <= 14
 1 <= U5 <= 14
 1 <= U6 <= 14
 1 <= U7 <= 14
 1 <= U8 <= 14
 1 <= U9 <= 14
 1 <= U10 <= 14
 1 <= U11 <= 14
 1 <= U12 <= 14
 1 <= U13 <= 14
 1 <= U14 <= 14
Binary
 X_0_1
 X_0_2
 X_0_3
 X_0_4
 X_0_5
 X_0_6
 X_0_7
 X_0_8
 X_0_9
 X_0_10
 X_0_11
 X_0_12
 X_0_13
 X_0_14
 X_1_0
 X_1_2
 X_1_3
 X_1_4
 X_1_5
 X_1_6
 X_1_7
 X_1_8
 X_1_9
 X_1_10
 X_1_11
 X_1_12
 X_1_13
 X_1_14
 X_2_0
 X_2_1
 X_2_3
 X_2_4
 X_2_5
 X_2_6
 X_2_7
 X_2_8
 X_2_9
 X_2_10
 X_2_11
 X_2_12
 X_2_13
 X_2_14
 X_3_0
 X_3_1
 X_3_2
 X_3_4
 X_3_5
 X_3_6
 X_3_7
 X_3_8
 X_3_9
 X_3_10
 X_3_11
 X_3_12
 X_3_13
 X_3_14
 X_4_0
 X_4_1
 X_4_2
 X_4_3
 X_4_5
 X_4_6
 X_4_7
 X_4_8
 X_4_9
 X_4_10
 X_4_11
 X_4_12
 X_4_13
 X_4_14
 X_5_0
 X_5_1
 X_5_2
 X_5_3
 X_5_4
 X_5_6
 X_5_7
 X_5_8
 X_5_9
 X_5_10
 X_5_11
 X_5_12
 X_5_13
 X_5_14
 X_6_0
 X_6_1
 X_6_2
 X_6_3
 X_6_4
 X_6_5
 X_6_7
 X_6_8
 X_6_9
 X_6_10
 X_6_11
 X_6_12
 X_6_13
 X_6_14
 X_7_0
 X_7_1
 X_7_2
 X_7_3
 X_7_4
 X_7_5
 X_7_6
 X_7_8
 X_7_9
 X_7_10
 X_7_11
 X_7_12
 X_7_13
 X_7_14
 X_8_0
 X_8_1
 X_8_2
 X_8_3
 X_8_4
 X_8_5
 X_8_6
 X_8_7
 X_8_9
 X_8_10
 X_8_11
 X_8_12
 X_8_13
 X_8_14
 X_9_0
 X_9_1
 X_9_2
 X_9_3
 X_9_4
 X_9_5
 X_9_6
 X_9_7
 X_9_8
 X_9_10
 X_9_11
 X_9_12
 X_9_13
 X_9_14
 X_10_0
 X_10_1
 X_10_2
 X_10_3
 X_10_4
 X_10_5
 X_10_6
 X_10_7
 X_10_8
 X_10_9
 X_10_11
 X_10_12
 X_10_13
 X_10_14
 X_11_0
 X_11_1
 X_11_2
 X_11_3
 X_11_4
 X_11_5
 X_11_6
 X_11_7
 X_11_8
 X_11_9
 X_11_10
 X_11_12
 X_11_13
 X_11_14
 X_12_0
 X_12_1
 X_12_2
 X_12_3
 X_12_4
 X_12_5
 X_12_6
 X_12_7
 X_12_8
 X_12_9
 X_12_10
 X_12_11
 X_12_13
 X_12_14
 X_13_0
 X_13_1
 X_13_2
 X_13_3
 X_13_4
 X_13_5
 X_13_6
 X_13_7
 X_13_8
 X_13_9
 X_13_10
 X_13_11
 X_13_12
 X_13_14
 X_14_0
 X_14_1
 X_14_2
 X_14_3
 X_14_4
 X_14_5
 X_14_6
 X_14_7
 X_14_8
 X_14_9
 X_14_10
 X_14_11
 X_14_12
 X_14_13
End
